<number of tasks>
20

<cycle time>
1000

<order strength>
0,184


<task times>
1 77
2 299
3 283
4 260
5 207
6 115
7 372
8 89
9 286
10 126
11 500
12 269
13 244
14 141
15 475
16 181
17 95
18 53
19 302
20 210

<precedence relations>
1,6
1,7
2,8
2,9
2,11
4,10
10,12
11,13
12,14
12,15
13,16
15,18
15,19
15,20
16,17

<end>
